; 
(set-info :status unknown)
(declare-fun node_0x7ffff1719d60 () (_ BitVec 1))
(declare-fun ccso_node_0x7ffff1725a30 () (_ BitVec 32))
(declare-fun ine_0x7ffff1726170 () (_ BitVec 1))
(declare-fun carg_node_0x7ffff1719290 () (_ BitVec 64))
(declare-fun carg_node_0x7ffff06e1b40_CS0x41415b8 () (_ BitVec 64))
(declare-fun carg_node_0x7ffff1719410 () (_ BitVec 64))
(declare-fun carg_node_0x7ffff06e1ce0_CS0x41415b8 () (_ BitVec 64))
(declare-fun node_0x7ffff1725460 () (_ BitVec 64))
(declare-fun carg_node_0x7ffff06e1940_CS0x41415b8 () (_ BitVec 64))
(declare-fun fsub_0x7ffff1725600 () (_ BitVec 64))
(declare-fun fmul_0x7ffff1725230 () (_ BitVec 64))
(declare-fun node_0x7ffff171bd60 () (_ BitVec 64))
(declare-fun node_0x7ffff171b9f0 () (_ BitVec 64))
(declare-fun node_0x7ffff1725090 () (_ BitVec 64))
(declare-fun node_0x7ffff1724cc0 () (_ BitVec 64))
(declare-fun fadd_0x7ffff1724e60 () (_ BitVec 64))
(declare-fun fmul_0x7ffff1724a90 () (_ BitVec 64))
(declare-fun node_0x7ffff17248f0 () (_ BitVec 64))
(declare-fun fmul_0x7ffff171bb70 () (_ BitVec 64))
(declare-fun carg_node_0x7ffff1718f90 () (_ BitVec 64))
(declare-fun node_0x7ffff1724560 () (_ BitVec 64))
(declare-fun fmul_0x7ffff1724700 () (_ BitVec 64))
(declare-fun node_0x7ffff1720d70 () (_ BitVec 64))
(declare-fun fsub_0x7ffff1720f10 () (_ BitVec 64))
(declare-fun carg_node_0x7ffff1718da0 () (_ BitVec 64))
(declare-fun node_0x7ffff1720900 () (_ BitVec 64))
(declare-fun LdMem_0x7ffff1720aa0 () (_ BitVec 64))
(declare-fun pcso_node_0x12246ac0 () (_ BitVec 64))
(declare-fun StMem_0x12246c70 () (_ BitVec 64))
(declare-fun R0x7ffff170ef50 () (_ BitVec 1))
(declare-fun node_0x7ffff1724190 () (_ BitVec 64))
(declare-fun fmul_0x7ffff1724330 () (_ BitVec 64))
(declare-fun fmul_0x7ffff171bf00 () (_ BitVec 64))
(declare-fun carg_node_0x7ffff1719110 () (_ BitVec 64))
(declare-fun node_0x7ffff1723e00 () (_ BitVec 64))
(declare-fun fmul_0x7ffff1723fa0 () (_ BitVec 64))
(declare-fun node_0x7ffff1720130 () (_ BitVec 64))
(declare-fun fsub_0x7ffff17202d0 () (_ BitVec 64))
(declare-fun carg_node_0x7ffff1718c00 () (_ BitVec 64))
(declare-fun node_0x7ffff171fce0 () (_ BitVec 64))
(declare-fun LdMem_0x7ffff171fe60 () (_ BitVec 64))
(declare-fun pcso_node_0x122466d0 () (_ BitVec 64))
(declare-fun StMem_0x12246880 () (_ BitVec 64))
(declare-fun node_0x7ffff1723a30 () (_ BitVec 64))
(declare-fun carg_node_0x7ffff06e17e0_CS0x41415b8 () (_ BitVec 64))
(declare-fun fmul_0x7ffff1723bd0 () (_ BitVec 64))
(declare-fun node_0x7ffff1723520 () (_ BitVec 64))
(declare-fun fadd_0x7ffff17236c0 () (_ BitVec 64))
(declare-fun fmul_0x7ffff17232f0 () (_ BitVec 64))
(declare-fun node_0x7ffff1723150 () (_ BitVec 64))
(declare-fun node_0x7ffff1722d80 () (_ BitVec 64))
(declare-fun fmul_0x7ffff1722f20 () (_ BitVec 64))
(declare-fun node_0x7ffff1722910 () (_ BitVec 64))
(declare-fun LdMem_0x7ffff171ddf0 () (_ BitVec 64))
(declare-fun pcso_node_0x12243850 () (_ BitVec 64))
(declare-fun StMem_0x12243a00 () (_ BitVec 64))
(declare-fun node_0x7ffff1722140 () (_ BitVec 64))
(declare-fun fmul_0x7ffff17222e0 () (_ BitVec 64))
(declare-fun node_0x7ffff1721960 () (_ BitVec 64))
(declare-fun fmul_0x7ffff1721f10 () (_ BitVec 64))
(declare-fun node_0x7ffff1721540 () (_ BitVec 64))
(declare-fun LdMem_0x7ffff171c590 () (_ BitVec 64))
(declare-fun pcso_node_0x12243460 () (_ BitVec 64))
(declare-fun StMem_0x12243610 () (_ BitVec 64))
(declare-fun node_0x7ffff171f2d0 () (_ BitVec 64))
(declare-fun carg_node_0x7ffff06e1570_CS0x41415b8 () (_ BitVec 64))
(declare-fun fadd_0x7ffff171f470 () (_ BitVec 64))
(declare-fun fmul_0x7ffff171f0a0 () (_ BitVec 64))
(declare-fun node_0x7ffff171ed20 () (_ BitVec 64))
(declare-fun node_0x7ffff171e950 () (_ BitVec 64))
(declare-fun fmul_0x7ffff171eaf0 () (_ BitVec 64))
(declare-fun node_0x7ffff171e4e0 () (_ BitVec 64))
(declare-fun node_0x7ffff171dc50 () (_ BitVec 64))
(declare-fun node_0x7ffff171d460 () (_ BitVec 64))
(declare-fun fmul_0x7ffff171d600 () (_ BitVec 64))
(declare-fun node_0x7ffff171d090 () (_ BitVec 64))
(declare-fun fmul_0x7ffff171d230 () (_ BitVec 64))
(declare-fun node_0x7ffff171cc20 () (_ BitVec 64))
(declare-fun node_0x7ffff171c410 () (_ BitVec 64))
(declare-fun return_node_0x7ffff06e1fc0_CS0x41415b8 () (_ BitVec 32))
(declare-fun node_0x12245750 () (_ BitVec 64))
(declare-fun parg_node_0x107ae020_CS0x413fcc8 () (_ BitVec 64))
(declare-fun LdMem_0x12245100 () (_ BitVec 64))
(declare-fun parg_node_0x12245420 () (_ BitVec 64))
(declare-fun StMem_0x12245270 () (_ BitVec 64))
(declare-fun node_0x107afe90_CS0x413fcc8 () (_ BitVec 64))
(declare-fun node_0x12245f80 () (_ BitVec 64))
(declare-fun parg_node_0x107ae730_CS0x413fcc8 () (_ BitVec 64))
(declare-fun LdMem_0x12245930 () (_ BitVec 64))
(declare-fun parg_node_0x12245c50 () (_ BitVec 64))
(declare-fun StMem_0x12245aa0 () (_ BitVec 64))
(declare-fun node_0x107b0280_CS0x413fcc8 () (_ BitVec 64))
(declare-fun node_0x12244770 () (_ BitVec 64))
(declare-fun parg_node_0x107b5aa0_CS0x413e918 () (_ BitVec 64))
(declare-fun LdMem_0x7cdc490 () (_ BitVec 64))
(declare-fun parg_node_0x7cd8e80 () (_ BitVec 64))
(declare-fun StMem_0x7ce4f50 () (_ BitVec 64))
(declare-fun node_0x107b7a50_CS0x413e918 () (_ BitVec 64))
(declare-fun node_0x12242cf0 () (_ BitVec 64))
(declare-fun parg_node_0x107b61b0_CS0x413e918 () (_ BitVec 64))
(declare-fun LdMem_0x12242760 () (_ BitVec 64))
(declare-fun parg_node_0x12242a40 () (_ BitVec 64))
(declare-fun StMem_0x122428d0 () (_ BitVec 64))
(declare-fun node_0x107b7d30_CS0x413e918 () (_ BitVec 64))
(declare-fun carg_node_0x7ffff17196a0 () (_ BitVec 64))
(assert
 (= node_0x7ffff1719d60 (_ bv1 1)))
(assert
 (let (($x174 (= ine_0x7ffff1726170 (ite (and (distinct ccso_node_0x7ffff1725a30 (_ bv0 32)) true) (_ bv1 1) (_ bv0 1)))))
 (and (= node_0x7ffff1719d60 ine_0x7ffff1726170) $x174)))
(assert
 (= carg_node_0x7ffff06e1b40_CS0x41415b8 carg_node_0x7ffff1719290))
(assert
 (= carg_node_0x7ffff06e1ce0_CS0x41415b8 carg_node_0x7ffff1719410))
(assert
 (= carg_node_0x7ffff06e1940_CS0x41415b8 node_0x7ffff1725460))
(assert
 (let (($x332 (= node_0x7ffff1725460 fsub_0x7ffff1725600)))
 (let (($x301 (or (or (= node_0x7ffff171b9f0 (_ bv0 64)) (= node_0x7ffff171bd60 (_ bv0 64))) (and (distinct fmul_0x7ffff1725230 (_ bv0 64)) true))))
 (let (($x298 (= fmul_0x7ffff1725230 (bvmul node_0x7ffff171b9f0 node_0x7ffff171bd60))))
 (let (($x302 (and $x298 $x301)))
 (let (($x515 (= node_0x7ffff1725090 fmul_0x7ffff1725230)))
 (let (($x197 (= fsub_0x7ffff1725600 (bvsub node_0x7ffff1724cc0 node_0x7ffff1725090))))
 (let (($x333 (= node_0x7ffff1724cc0 fadd_0x7ffff1724e60)))
 (let (($x508 (= node_0x7ffff17248f0 fmul_0x7ffff1724a90)))
 (let (($x290 (= carg_node_0x7ffff1718f90 (_ bv0 64))))
 (let ((?x288 (bvmul carg_node_0x7ffff1718f90 carg_node_0x7ffff1718f90)))
 (let (($x289 (= fmul_0x7ffff171bb70 ?x288)))
 (let (($x294 (and $x289 (or (or $x290 $x290) (and (distinct fmul_0x7ffff171bb70 (_ bv0 64)) true)))))
 (let (($x514 (= node_0x7ffff171b9f0 fmul_0x7ffff171bb70)))
 (let (($x257 (= node_0x7ffff171b9f0 (_ bv0 64))))
 (let (($x256 (= node_0x7ffff1724560 (_ bv0 64))))
 (let (($x258 (or $x256 $x257)))
 (let ((?x254 (bvmul node_0x7ffff1724560 node_0x7ffff171b9f0)))
 (let (($x255 (= fmul_0x7ffff1724a90 ?x254)))
 (let (($x261 (and $x255 (or $x258 (and (distinct fmul_0x7ffff1724a90 (_ bv0 64)) true)))))
 (let (($x509 (= node_0x7ffff1724560 fmul_0x7ffff1724700)))
 (let (($x270 (or (or (= node_0x7ffff1720d70 (_ bv0 64)) (= node_0x7ffff1720d70 (_ bv0 64))) (and (distinct fmul_0x7ffff1724700 (_ bv0 64)) true))))
 (let ((?x265 (bvmul node_0x7ffff1720d70 node_0x7ffff1720d70)))
 (let (($x266 (= fmul_0x7ffff1724700 ?x265)))
 (let (($x271 (and $x266 $x270)))
 (let (($x510 (= node_0x7ffff1720d70 fsub_0x7ffff1720f10)))
 (let (($x277 (= fsub_0x7ffff1720f10 (bvsub node_0x7ffff1720900 carg_node_0x7ffff1718da0))))
 (let (($x481 (= node_0x7ffff1720900 LdMem_0x7ffff1720aa0)))
 (let (($x470 (= LdMem_0x7ffff1720aa0 StMem_0x12246c70)))
 (let ((?x202 (bvadd node_0x7ffff1724190 node_0x7ffff17248f0)))
 (let (($x203 (= fadd_0x7ffff1724e60 ?x202)))
 (let (($x334 (= node_0x7ffff1724190 fmul_0x7ffff1724330)))
 (let (($x245 (= carg_node_0x7ffff1719110 (_ bv0 64))))
 (let ((?x243 (bvmul carg_node_0x7ffff1719110 carg_node_0x7ffff1719110)))
 (let (($x244 (= fmul_0x7ffff171bf00 ?x243)))
 (let (($x249 (and $x244 (or (or $x245 $x245) (and (distinct fmul_0x7ffff171bf00 (_ bv0 64)) true)))))
 (let (($x160 (= node_0x7ffff171bd60 fmul_0x7ffff171bf00)))
 (let (($x215 (or (or (= node_0x7ffff1723e00 (_ bv0 64)) (= node_0x7ffff171bd60 (_ bv0 64))) (and (distinct fmul_0x7ffff1724330 (_ bv0 64)) true))))
 (let ((?x208 (bvmul node_0x7ffff1723e00 node_0x7ffff171bd60)))
 (let (($x209 (= fmul_0x7ffff1724330 ?x208)))
 (let (($x216 (and $x209 $x215)))
 (let (($x323 (= node_0x7ffff1723e00 fmul_0x7ffff1723fa0)))
 (let (($x225 (or (or (= node_0x7ffff1720130 (_ bv0 64)) (= node_0x7ffff1720130 (_ bv0 64))) (and (distinct fmul_0x7ffff1723fa0 (_ bv0 64)) true))))
 (let ((?x220 (bvmul node_0x7ffff1720130 node_0x7ffff1720130)))
 (let (($x221 (= fmul_0x7ffff1723fa0 ?x220)))
 (let (($x226 (and $x221 $x225)))
 (let (($x324 (= node_0x7ffff1720130 fsub_0x7ffff17202d0)))
 (let (($x232 (= fsub_0x7ffff17202d0 (bvsub node_0x7ffff171fce0 carg_node_0x7ffff1718c00))))
 (let (($x482 (= node_0x7ffff171fce0 LdMem_0x7ffff171fe60)))
 (let (($x566 (= LdMem_0x7ffff171fe60 StMem_0x12246880)))
 (and (or (not (= R0x7ffff170ef50 (_ bv1 1))) $x566) $x566 (= StMem_0x12246880 pcso_node_0x122466d0) $x482 $x232 $x324 $x226 $x323 $x216 $x160 $x249 $x334 $x203 (or (not (= R0x7ffff170ef50 (_ bv1 1))) $x470) $x470 (= StMem_0x12246c70 pcso_node_0x12246ac0) $x481 $x277 $x510 $x271 $x509 $x261 $x514 $x294 $x508 $x333 $x197 $x515 $x302 $x332)))))))))))))))))))))))))))))))))))))))))))))))))))
(assert
 (= carg_node_0x7ffff06e17e0_CS0x41415b8 node_0x7ffff1723a30))
(assert
 (let (($x358 (or (or (= (_ bv2 64) (_ bv0 64)) (= node_0x7ffff1723520 (_ bv0 64))) (and (distinct fmul_0x7ffff1723bd0 (_ bv0 64)) true))))
 (let (($x359 (and (= fmul_0x7ffff1723bd0 (bvmul (_ bv2 64) node_0x7ffff1723520)) $x358)))
 (let (($x241 (= node_0x7ffff1723520 fadd_0x7ffff17236c0)))
 (let (($x438 (= node_0x7ffff1723150 fmul_0x7ffff17232f0)))
 (let (($x401 (or (or (= node_0x7ffff1722d80 (_ bv0 64)) (= node_0x7ffff171b9f0 (_ bv0 64))) (and (distinct fmul_0x7ffff17232f0 (_ bv0 64)) true))))
 (let (($x397 (= fmul_0x7ffff17232f0 (bvmul node_0x7ffff1722d80 node_0x7ffff171b9f0))))
 (let (($x402 (and $x397 $x401)))
 (let (($x161 (= node_0x7ffff1722d80 fmul_0x7ffff1722f20)))
 (let (($x411 (or (or (= node_0x7ffff1722910 (_ bv0 64)) (= node_0x7ffff1720d70 (_ bv0 64))) (and (distinct fmul_0x7ffff1722f20 (_ bv0 64)) true))))
 (let (($x407 (= fmul_0x7ffff1722f20 (bvmul node_0x7ffff1722910 node_0x7ffff1720d70))))
 (let (($x412 (and $x407 $x411)))
 (let (($x550 (= node_0x7ffff1722910 LdMem_0x7ffff171ddf0)))
 (let (($x551 (= LdMem_0x7ffff171ddf0 StMem_0x12243a00)))
 (let ((?x364 (bvadd node_0x7ffff1722140 node_0x7ffff1723150)))
 (let (($x365 (= fadd_0x7ffff17236c0 ?x364)))
 (let (($x312 (= node_0x7ffff1722140 fmul_0x7ffff17222e0)))
 (let (($x374 (or (or (= node_0x7ffff1721960 (_ bv0 64)) (= node_0x7ffff171bd60 (_ bv0 64))) (and (distinct fmul_0x7ffff17222e0 (_ bv0 64)) true))))
 (let (($x370 (= fmul_0x7ffff17222e0 (bvmul node_0x7ffff1721960 node_0x7ffff171bd60))))
 (let (($x375 (and $x370 $x374)))
 (let (($x313 (= node_0x7ffff1721960 fmul_0x7ffff1721f10)))
 (let (($x384 (or (or (= node_0x7ffff1721540 (_ bv0 64)) (= node_0x7ffff1720130 (_ bv0 64))) (and (distinct fmul_0x7ffff1721f10 (_ bv0 64)) true))))
 (let (($x380 (= fmul_0x7ffff1721f10 (bvmul node_0x7ffff1721540 node_0x7ffff1720130))))
 (let (($x385 (and $x380 $x384)))
 (let (($x239 (= node_0x7ffff1721540 LdMem_0x7ffff171c590)))
 (let (($x433 (= LdMem_0x7ffff171c590 StMem_0x12243610)))
 (and (or (not (= R0x7ffff170ef50 (_ bv1 1))) $x433) $x433 (= StMem_0x12243610 pcso_node_0x12243460) $x239 $x385 $x313 $x375 $x312 $x365 (or (not (= R0x7ffff170ef50 (_ bv1 1))) $x551) $x551 (= StMem_0x12243a00 pcso_node_0x12243850) $x550 $x412 $x161 $x402 $x438 $x241 $x359 (= node_0x7ffff1723a30 fmul_0x7ffff1723bd0))))))))))))))))))))))))))))
(assert
 (= carg_node_0x7ffff06e1570_CS0x41415b8 node_0x7ffff171f2d0))
(assert
 (let (($x318 (= node_0x7ffff171ed20 fmul_0x7ffff171f0a0)))
 (let (($x491 (or (or (= node_0x7ffff171e950 (_ bv0 64)) (= node_0x7ffff171b9f0 (_ bv0 64))) (and (distinct fmul_0x7ffff171f0a0 (_ bv0 64)) true))))
 (let (($x487 (= fmul_0x7ffff171f0a0 (bvmul node_0x7ffff171e950 node_0x7ffff171b9f0))))
 (let (($x492 (and $x487 $x491)))
 (let (($x281 (= node_0x7ffff171e950 fmul_0x7ffff171eaf0)))
 (let (($x503 (or (or (= node_0x7ffff171dc50 (_ bv0 64)) (= node_0x7ffff171e4e0 (_ bv0 64))) (and (distinct fmul_0x7ffff171eaf0 (_ bv0 64)) true))))
 (let (($x498 (= fmul_0x7ffff171eaf0 (bvmul node_0x7ffff171dc50 node_0x7ffff171e4e0))))
 (let (($x504 (and $x498 $x503)))
 (let ((?x457 (bvadd node_0x7ffff171d460 node_0x7ffff171ed20)))
 (let (($x458 (= fadd_0x7ffff171f470 ?x457)))
 (let (($x218 (= node_0x7ffff171d460 fmul_0x7ffff171d600)))
 (let (($x467 (or (or (= node_0x7ffff171d090 (_ bv0 64)) (= node_0x7ffff171bd60 (_ bv0 64))) (and (distinct fmul_0x7ffff171d600 (_ bv0 64)) true))))
 (let (($x463 (= fmul_0x7ffff171d600 (bvmul node_0x7ffff171d090 node_0x7ffff171bd60))))
 (let (($x468 (and $x463 $x467)))
 (let (($x314 (= node_0x7ffff171d090 fmul_0x7ffff171d230)))
 (let (($x479 (or (or (= node_0x7ffff171c410 (_ bv0 64)) (= node_0x7ffff171cc20 (_ bv0 64))) (and (distinct fmul_0x7ffff171d230 (_ bv0 64)) true))))
 (let (($x474 (= fmul_0x7ffff171d230 (bvmul node_0x7ffff171c410 node_0x7ffff171cc20))))
 (let (($x480 (and $x474 $x479)))
 (and $x480 (= node_0x7ffff171c410 LdMem_0x7ffff171c590) (= node_0x7ffff171cc20 LdMem_0x7ffff171c590) $x314 $x468 $x218 $x458 $x504 (= node_0x7ffff171dc50 LdMem_0x7ffff171ddf0) (= node_0x7ffff171e4e0 LdMem_0x7ffff171ddf0) $x281 $x492 $x318 (= node_0x7ffff171f2d0 fadd_0x7ffff171f470)))))))))))))))))))))
(assert
 (= return_node_0x7ffff06e1fc0_CS0x41415b8 ccso_node_0x7ffff1725a30))
(assert
 (= parg_node_0x107ae020_CS0x413fcc8 node_0x12245750))
(assert
 (let (($x557 (= LdMem_0x12245100 StMem_0x12245270)))
 (and (or (not (= R0x7ffff170ef50 (_ bv1 1))) $x557) $x557 (= StMem_0x12245270 parg_node_0x12245420) (= node_0x12245750 LdMem_0x12245100))))
(assert
 (= node_0x107afe90_CS0x413fcc8 pcso_node_0x122466d0))
(assert
 (= parg_node_0x107ae730_CS0x413fcc8 node_0x12245f80))
(assert
 (let (($x531 (= node_0x12245f80 LdMem_0x12245930)))
 (let (($x533 (= LdMem_0x12245930 StMem_0x12245aa0)))
 (and (or (not (= R0x7ffff170ef50 (_ bv1 1))) $x533) $x533 (= StMem_0x12245aa0 parg_node_0x12245c50) $x531))))
(assert
 (= node_0x107b0280_CS0x413fcc8 pcso_node_0x12246ac0))
(assert
 (= parg_node_0x107b5aa0_CS0x413e918 node_0x12244770))
(assert
 (let (($x191 (= node_0x12244770 LdMem_0x7cdc490)))
 (let (($x186 (= LdMem_0x7cdc490 StMem_0x7ce4f50)))
 (and (or (not (= R0x7ffff170ef50 (_ bv1 1))) $x186) $x186 (= StMem_0x7ce4f50 parg_node_0x7cd8e80) $x191))))
(assert
 (= node_0x107b7a50_CS0x413e918 pcso_node_0x12243460))
(assert
 (= parg_node_0x107b61b0_CS0x413e918 node_0x12242cf0))
(assert
 (let (($x32 (= node_0x12242cf0 LdMem_0x12242760)))
 (let (($x33 (= LdMem_0x12242760 StMem_0x122428d0)))
 (and (or (not (= R0x7ffff170ef50 (_ bv1 1))) $x33) $x33 (= StMem_0x122428d0 parg_node_0x12242a40) $x32))))
(assert
 (= node_0x107b7d30_CS0x413e918 pcso_node_0x12243850))
(assert
 (and (distinct carg_node_0x7ffff17196a0 (_ bv0 64)) true))
(maximize LdMem_0x7ffff1720aa0)
(maximize fmul_0x7ffff1724330)
(minimize node_0x7ffff171fce0)
(minimize carg_node_0x7ffff06e1ce0_CS0x41415b8)
(minimize node_0x107b7d30_CS0x413e918)
(maximize StMem_0x12246880)
(maximize pcso_node_0x12246ac0)
(maximize node_0x7ffff1725090)
(maximize node_0x12242cf0)
(maximize R0x7ffff170ef50)
(maximize ine_0x7ffff1726170)
(maximize fmul_0x7ffff1724700)
(maximize fmul_0x7ffff1721f10)
(minimize node_0x7ffff1723a30)
(minimize carg_node_0x7ffff06e17e0_CS0x41415b8)
(maximize node_0x7ffff1722910)
(minimize fmul_0x7ffff171f0a0)
(minimize fmul_0x7ffff1724700)
(minimize fmul_0x7ffff1723bd0)
(minimize pcso_node_0x12243850)
(maximize node_0x7ffff1722140)
(maximize fmul_0x7ffff171bf00)
(minimize node_0x107b0280_CS0x413fcc8)
(maximize node_0x107b7d30_CS0x413e918)
(maximize fmul_0x7ffff171f0a0)
(minimize node_0x12242cf0)
(minimize node_0x12245f80)
(maximize node_0x7ffff17248f0)
(maximize parg_node_0x12245420)
(minimize fmul_0x7ffff1725230)
(maximize fmul_0x7ffff1724a90)
(maximize fadd_0x7ffff1724e60)
(minimize fmul_0x7ffff171d230)
(minimize node_0x7ffff1723e00)
(maximize node_0x7ffff171ed20)
(minimize node_0x7ffff1720130)
(maximize node_0x7ffff1723a30)
(minimize node_0x7ffff1725090)
(maximize node_0x107afe90_CS0x413fcc8)
(minimize node_0x7ffff171d460)
(maximize fadd_0x7ffff171f470)
(minimize fmul_0x7ffff171bb70)
(minimize LdMem_0x7ffff171fe60)
(minimize fmul_0x7ffff171d600)
(minimize ine_0x7ffff1726170)
(minimize node_0x7ffff171bd60)
(maximize LdMem_0x12245930)
(minimize fsub_0x7ffff1720f10)
(minimize node_0x7ffff1723150)
(minimize fmul_0x7ffff1721f10)
(minimize StMem_0x12245270)
(maximize node_0x7ffff1720d70)
(maximize fsub_0x7ffff1725600)
(maximize node_0x7ffff171f2d0)
(maximize carg_node_0x7ffff1719110)
(minimize node_0x7ffff1720d70)
(minimize StMem_0x12245aa0)
(minimize fmul_0x7ffff1722f20)
(minimize node_0x7ffff171cc20)
(minimize parg_node_0x107b5aa0_CS0x413e918)
(minimize carg_node_0x7ffff17196a0)
(minimize carg_node_0x7ffff06e1570_CS0x41415b8)
(minimize parg_node_0x107ae730_CS0x413fcc8)
(minimize carg_node_0x7ffff1718f90)
(maximize LdMem_0x7ffff171c590)
(maximize fmul_0x7ffff1722f20)
(minimize ccso_node_0x7ffff1725a30)
(minimize node_0x7ffff1724560)
(maximize carg_node_0x7ffff1719410)
(maximize node_0x7ffff171d460)
(minimize fadd_0x7ffff171f470)
(maximize LdMem_0x12245100)
(minimize return_node_0x7ffff06e1fc0_CS0x41415b8)
(maximize fmul_0x7ffff171bb70)
(minimize node_0x7ffff171e4e0)
(minimize StMem_0x12246c70)
(minimize node_0x107b7a50_CS0x413e918)
(check-sat)
(get-objectives)
